c "278167.clq"
p edge 100 1344
e 1 17
e 1 18
e 1 19
e 1 20
e 1 25
e 1 27
e 1 29
e 1 34
e 1 36
e 1 41
e 1 47
e 1 55
e 1 56
e 1 57
e 1 63
e 1 75
e 1 78
e 1 79
e 1 87
e 1 88
e 1 90
e 2 17
e 2 18
e 2 19
e 2 20
e 2 21
e 2 22
e 2 23
e 2 24
e 2 25
e 2 27
e 2 28
e 2 30
e 2 31
e 2 32
e 2 33
e 2 36
e 2 39
e 2 40
e 2 42
e 2 43
e 2 45
e 2 46
e 2 47
e 2 49
e 2 52
e 2 55
e 2 58
e 2 60
e 2 69
e 2 71
e 2 72
e 2 73
e 2 90
e 2 91
e 2 99
e 3 17
e 3 18
e 3 19
e 3 21
e 3 22
e 3 24
e 3 25
e 3 30
e 3 31
e 3 32
e 3 35
e 3 38
e 3 46
e 3 50
e 3 68
e 3 73
e 3 82
e 3 83
e 3 85
e 3 89
e 3 90
e 3 92
e 4 17
e 4 18
e 4 19
e 4 20
e 4 21
e 4 23
e 4 24
e 4 26
e 4 27
e 4 32
e 4 37
e 4 38
e 4 41
e 4 47
e 4 48
e 4 51
e 4 58
e 4 60
e 4 61
e 4 64
e 4 69
e 4 70
e 4 72
e 4 74
e 4 75
e 4 76
e 4 80
e 4 93
e 4 99
e 5 17
e 5 18
e 5 19
e 5 20
e 5 22
e 5 23
e 5 24
e 5 35
e 5 38
e 5 39
e 5 40
e 5 41
e 5 42
e 5 43
e 5 46
e 5 49
e 5 50
e 5 80
e 5 81
e 5 86
e 5 89
e 5 90
e 6 17
e 6 18
e 6 19
e 6 20
e 6 21
e 6 22
e 6 23
e 6 24
e 6 26
e 6 27
e 6 28
e 6 32
e 6 35
e 6 37
e 6 39
e 6 40
e 6 41
e 6 46
e 6 47
e 6 57
e 6 59
e 6 60
e 6 61
e 6 62
e 6 88
e 6 91
e 6 94
e 7 17
e 7 18
e 7 19
e 7 20
e 7 21
e 7 22
e 7 23
e 7 26
e 7 27
e 7 28
e 7 29
e 7 31
e 7 32
e 7 34
e 7 35
e 7 41
e 7 44
e 7 60
e 7 61
e 7 63
e 7 82
e 7 84
e 7 85
e 7 90
e 7 93
e 8 17
e 8 18
e 8 19
e 8 20
e 8 21
e 8 22
e 8 23
e 8 24
e 8 25
e 8 26
e 8 32
e 8 33
e 8 34
e 8 38
e 8 40
e 8 42
e 8 45
e 8 47
e 8 51
e 8 52
e 8 60
e 8 69
e 8 73
e 8 78
e 8 87
e 8 93
e 9 17
e 9 52
e 10 17
e 10 18
e 10 19
e 10 20
e 10 21
e 10 22
e 10 23
e 10 25
e 10 26
e 10 28
e 10 29
e 10 30
e 10 33
e 10 34
e 10 35
e 10 38
e 10 42
e 10 44
e 10 45
e 10 47
e 10 52
e 10 60
e 10 68
e 10 73
e 10 87
e 10 88
e 10 89
e 10 94
e 10 96
e 10 97
e 10 98
e 11 17
e 11 18
e 11 19
e 11 20
e 11 21
e 11 22
e 11 26
e 11 28
e 11 32
e 11 39
e 11 42
e 11 84
e 11 96
e 11 98
e 11 100
e 12 17
e 12 18
e 12 20
e 12 21
e 12 22
e 12 26
e 12 27
e 12 30
e 12 35
e 12 38
e 12 40
e 12 42
e 12 50
e 12 51
e 12 53
e 12 54
e 12 55
e 12 56
e 12 57
e 12 62
e 12 64
e 12 67
e 12 72
e 12 73
e 12 74
e 12 76
e 12 77
e 12 91
e 13 17
e 13 18
e 13 19
e 13 20
e 13 21
e 13 23
e 13 24
e 13 25
e 13 29
e 13 31
e 13 33
e 13 34
e 13 48
e 13 49
e 13 60
e 13 63
e 13 100
e 14 17
e 14 18
e 14 19
e 14 20
e 14 23
e 14 24
e 14 27
e 14 29
e 14 30
e 14 32
e 14 37
e 14 39
e 14 41
e 14 42
e 14 46
e 14 47
e 14 55
e 14 71
e 14 73
e 14 75
e 14 78
e 14 81
e 14 82
e 14 95
e 14 97
e 14 100
e 15 17
e 15 18
e 15 19
e 15 20
e 15 21
e 15 22
e 15 24
e 15 25
e 15 26
e 15 27
e 15 28
e 15 29
e 15 31
e 15 33
e 15 34
e 15 35
e 15 38
e 15 39
e 15 44
e 15 45
e 15 46
e 15 49
e 15 52
e 15 57
e 15 58
e 15 60
e 15 61
e 15 63
e 15 64
e 15 66
e 15 71
e 15 74
e 15 76
e 15 81
e 15 85
e 15 92
e 15 93
e 15 94
e 16 17
e 16 18
e 16 19
e 16 21
e 16 22
e 16 23
e 16 24
e 16 25
e 16 26
e 16 27
e 16 28
e 16 29
e 16 30
e 16 31
e 16 34
e 16 36
e 16 40
e 16 43
e 16 50
e 16 64
e 16 69
e 16 70
e 16 71
e 16 74
e 16 75
e 16 79
e 16 93
e 16 96
e 16 98
e 16 99
e 16 100
e 17 18
e 17 19
e 17 20
e 17 21
e 17 22
e 17 23
e 17 24
e 17 25
e 17 26
e 17 27
e 17 28
e 17 29
e 17 30
e 17 31
e 17 32
e 17 34
e 17 35
e 17 36
e 17 37
e 17 39
e 17 40
e 17 41
e 17 42
e 17 43
e 17 44
e 17 45
e 17 48
e 17 49
e 17 50
e 17 51
e 17 54
e 17 57
e 17 58
e 17 61
e 17 62
e 17 64
e 17 72
e 17 75
e 17 76
e 17 78
e 17 81
e 17 82
e 17 83
e 17 86
e 17 87
e 17 89
e 17 90
e 17 91
e 17 93
e 17 94
e 17 97
e 17 98
e 17 100
e 18 19
e 18 20
e 18 21
e 18 22
e 18 23
e 18 24
e 18 25
e 18 26
e 18 27
e 18 28
e 18 29
e 18 30
e 18 31
e 18 32
e 18 33
e 18 34
e 18 35
e 18 36
e 18 37
e 18 38
e 18 39
e 18 40
e 18 41
e 18 43
e 18 44
e 18 51
e 18 58
e 18 59
e 18 63
e 18 65
e 18 66
e 18 72
e 18 78
e 18 80
e 18 81
e 18 82
e 18 84
e 18 97
e 18 98
e 19 20
e 19 21
e 19 22
e 19 23
e 19 25
e 19 26
e 19 28
e 19 29
e 19 30
e 19 31
e 19 34
e 19 35
e 19 36
e 19 37
e 19 43
e 19 45
e 19 46
e 19 47
e 19 49
e 19 50
e 19 51
e 19 54
e 19 56
e 19 57
e 19 59
e 19 60
e 19 61
e 19 62
e 19 65
e 19 69
e 19 72
e 19 73
e 19 75
e 19 77
e 19 79
e 19 80
e 19 83
e 19 86
e 19 87
e 19 89
e 19 90
e 19 91
e 19 92
e 19 93
e 19 96
e 19 98
e 20 21
e 20 22
e 20 23
e 20 24
e 20 25
e 20 26
e 20 28
e 20 30
e 20 31
e 20 33
e 20 37
e 20 38
e 20 40
e 20 41
e 20 44
e 20 45
e 20 49
e 20 51
e 20 52
e 20 53
e 20 54
e 20 60
e 20 68
e 20 70
e 20 72
e 20 73
e 20 78
e 20 81
e 20 85
e 20 92
e 20 93
e 20 100
e 21 22
e 21 23
e 21 24
e 21 25
e 21 26
e 21 27
e 21 29
e 21 30
e 21 31
e 21 32
e 21 33
e 21 36
e 21 37
e 21 42
e 21 43
e 21 44
e 21 45
e 21 46
e 21 48
e 21 50
e 21 59
e 21 61
e 21 62
e 21 64
e 21 66
e 21 68
e 21 70
e 21 75
e 21 83
e 21 86
e 21 89
e 21 95
e 21 97
e 22 23
e 22 24
e 22 25
e 22 27
e 22 28
e 22 29
e 22 30
e 22 31
e 22 33
e 22 34
e 22 35
e 22 37
e 22 39
e 22 40
e 22 41
e 22 42
e 22 43
e 22 44
e 22 46
e 22 47
e 22 48
e 22 50
e 22 52
e 22 54
e 22 56
e 22 57
e 22 59
e 22 62
e 22 64
e 22 65
e 22 66
e 22 68
e 22 70
e 22 74
e 22 77
e 22 79
e 22 80
e 22 82
e 22 84
e 22 86
e 22 87
e 22 88
e 22 93
e 22 95
e 22 100
e 23 24
e 23 25
e 23 29
e 23 30
e 23 31
e 23 33
e 23 36
e 23 37
e 23 40
e 23 42
e 23 45
e 23 48
e 23 49
e 23 52
e 23 53
e 23 55
e 23 56
e 23 57
e 23 62
e 23 63
e 23 65
e 23 67
e 23 68
e 23 71
e 23 73
e 23 74
e 23 76
e 23 77
e 23 82
e 23 83
e 23 84
e 23 90
e 24 25
e 24 26
e 24 27
e 24 28
e 24 29
e 24 30
e 24 31
e 24 32
e 24 33
e 24 35
e 24 36
e 24 37
e 24 38
e 24 39
e 24 40
e 24 41
e 24 42
e 24 43
e 24 45
e 24 46
e 24 47
e 24 49
e 24 51
e 24 52
e 24 53
e 24 54
e 24 55
e 24 57
e 24 58
e 24 60
e 24 62
e 24 63
e 24 68
e 24 69
e 24 76
e 24 86
e 24 87
e 24 90
e 24 94
e 24 96
e 25 26
e 25 27
e 25 28
e 25 29
e 25 30
e 25 31
e 25 36
e 25 39
e 25 40
e 25 43
e 25 45
e 25 46
e 25 47
e 25 48
e 25 51
e 25 53
e 25 58
e 25 61
e 25 64
e 25 66
e 25 68
e 25 69
e 25 78
e 25 79
e 25 83
e 25 84
e 25 85
e 25 87
e 25 93
e 26 27
e 26 28
e 26 32
e 26 33
e 26 34
e 26 35
e 26 36
e 26 37
e 26 38
e 26 42
e 26 45
e 26 47
e 26 52
e 26 54
e 26 56
e 26 57
e 26 58
e 26 59
e 26 60
e 26 61
e 26 62
e 26 63
e 26 66
e 26 67
e 26 70
e 26 72
e 26 76
e 26 83
e 26 85
e 26 91
e 26 97
e 27 28
e 27 30
e 27 31
e 27 32
e 27 33
e 27 35
e 27 37
e 27 38
e 27 41
e 27 45
e 27 47
e 27 48
e 27 49
e 27 54
e 27 56
e 27 57
e 27 58
e 27 63
e 27 67
e 27 77
e 27 80
e 27 83
e 27 90
e 27 93
e 27 99
e 28 29
e 28 34
e 28 38
e 28 40
e 28 41
e 28 43
e 28 44
e 28 49
e 28 50
e 28 51
e 28 54
e 28 55
e 28 56
e 28 58
e 28 59
e 28 63
e 28 65
e 28 67
e 28 69
e 28 70
e 28 71
e 28 72
e 28 74
e 28 76
e 28 78
e 28 79
e 28 89
e 28 92
e 28 96
e 28 99
e 29 32
e 29 45
e 29 48
e 29 49
e 29 56
e 29 59
e 29 63
e 29 64
e 29 67
e 29 70
e 29 72
e 29 74
e 29 77
e 29 81
e 29 82
e 29 89
e 29 92
e 29 94
e 29 95
e 29 97
e 29 98
e 30 33
e 30 34
e 30 35
e 30 36
e 30 38
e 30 42
e 30 43
e 30 45
e 30 46
e 30 50
e 30 52
e 30 53
e 30 54
e 30 56
e 30 58
e 30 59
e 30 64
e 30 67
e 30 69
e 30 71
e 30 74
e 30 84
e 30 85
e 30 88
e 30 89
e 30 91
e 31 32
e 31 33
e 31 34
e 31 36
e 31 41
e 31 46
e 31 48
e 31 49
e 31 50
e 31 52
e 31 58
e 31 59
e 31 61
e 31 65
e 31 70
e 31 74
e 31 75
e 31 77
e 31 80
e 31 85
e 31 88
e 31 92
e 31 94
e 31 95
e 31 100
e 32 33
e 32 37
e 32 38
e 32 39
e 32 41
e 32 44
e 32 50
e 32 52
e 32 53
e 32 57
e 32 60
e 32 62
e 32 66
e 32 67
e 32 68
e 32 69
e 32 74
e 32 77
e 32 78
e 32 81
e 32 93
e 32 96
e 32 99
e 32 100
e 33 34
e 33 35
e 33 36
e 33 37
e 33 39
e 33 40
e 33 42
e 33 43
e 33 44
e 33 47
e 33 53
e 33 54
e 33 55
e 33 59
e 33 68
e 33 73
e 33 77
e 33 78
e 33 80
e 33 83
e 33 85
e 33 87
e 33 95
e 33 96
e 33 97
e 33 98
e 33 99
e 34 36
e 34 39
e 34 48
e 34 50
e 34 54
e 34 58
e 34 65
e 34 68
e 34 81
e 34 86
e 34 87
e 34 89
e 34 91
e 34 94
e 34 97
e 34 99
e 35 36
e 35 37
e 35 39
e 35 43
e 35 52
e 35 53
e 35 54
e 35 55
e 35 56
e 35 58
e 35 62
e 35 65
e 35 71
e 35 73
e 35 77
e 35 79
e 35 86
e 35 98
e 36 38
e 36 39
e 36 41
e 36 44
e 36 47
e 36 48
e 36 49
e 36 51
e 36 52
e 36 53
e 36 54
e 36 55
e 36 59
e 36 61
e 36 62
e 36 64
e 36 65
e 36 67
e 36 69
e 36 71
e 36 74
e 37 40
e 37 42
e 37 43
e 37 45
e 37 46
e 37 51
e 37 57
e 37 61
e 37 69
e 37 72
e 37 75
e 37 76
e 37 80
e 37 85
e 37 89
e 37 94
e 37 96
e 37 99
e 38 44
e 38 55
e 38 58
e 38 59
e 38 61
e 39 44
e 39 48
e 39 50
e 39 53
e 39 55
e 39 71
e 39 72
e 39 79
e 39 80
e 39 82
e 39 90
e 39 95
e 39 99
e 40 44
e 40 49
e 40 53
e 40 55
e 40 62
e 40 67
e 40 72
e 40 76
e 40 83
e 40 84
e 40 88
e 40 95
e 41 43
e 41 53
e 41 57
e 41 66
e 41 67
e 41 68
e 41 77
e 41 78
e 41 81
e 41 84
e 41 87
e 41 88
e 41 96
e 41 100
e 42 47
e 42 48
e 42 62
e 42 67
e 42 74
e 42 79
e 42 83
e 42 88
e 42 89
e 43 44
e 43 48
e 43 53
e 43 55
e 43 61
e 43 64
e 43 66
e 43 68
e 43 72
e 43 73
e 43 75
e 43 84
e 43 86
e 43 96
e 43 97
e 43 99
e 44 46
e 44 48
e 44 50
e 44 53
e 44 75
e 44 78
e 44 80
e 44 82
e 44 83
e 44 88
e 45 46
e 45 49
e 45 51
e 45 54
e 45 58
e 45 63
e 45 64
e 45 65
e 45 71
e 45 75
e 45 77
e 45 85
e 45 94
e 45 97
e 46 51
e 46 54
e 46 55
e 46 59
e 46 69
e 46 71
e 46 81
e 47 51
e 47 67
e 47 68
e 47 70
e 47 71
e 47 74
e 47 80
e 47 83
e 47 88
e 47 91
e 47 93
e 48 51
e 48 56
e 48 57
e 48 63
e 48 65
e 48 66
e 48 69
e 48 76
e 48 82
e 48 84
e 48 88
e 48 92
e 48 95
e 49 50
e 49 52
e 49 56
e 49 59
e 49 70
e 49 71
e 50 53
e 50 59
e 50 62
e 50 63
e 50 80
e 50 90
e 50 95
e 50 96
e 51 56
e 51 65
e 51 66
e 51 67
e 51 70
e 51 74
e 51 75
e 51 77
e 51 79
e 51 87
e 51 90
e 51 92
e 52 55
e 52 60
e 52 63
e 52 65
e 52 73
e 52 77
e 52 78
e 52 84
e 52 85
e 52 94
e 53 56
e 53 62
e 53 63
e 53 65
e 53 75
e 53 76
e 53 79
e 53 82
e 53 92
e 53 99
e 53 100
e 54 56
e 54 57
e 54 60
e 54 61
e 54 65
e 54 81
e 54 83
e 54 91
e 55 66
e 55 67
e 55 77
e 55 79
e 55 91
e 56 77
e 56 97
e 57 60
e 57 64
e 57 69
e 57 71
e 57 78
e 57 83
e 57 91
e 57 92
e 58 61
e 58 66
e 58 82
e 58 95
e 58 98
e 59 64
e 59 66
e 59 83
e 59 84
e 59 89
e 59 95
e 59 100
e 60 64
e 60 65
e 60 66
e 60 76
e 60 81
e 60 88
e 60 90
e 60 92
e 61 68
e 61 69
e 61 73
e 61 78
e 62 66
e 62 70
e 62 75
e 62 86
e 62 92
e 62 93
e 62 95
e 62 97
e 63 72
e 63 76
e 63 79
e 63 82
e 63 84
e 63 87
e 63 88
e 64 68
e 64 70
e 64 71
e 64 72
e 64 76
e 64 79
e 64 92
e 64 95
e 65 67
e 65 70
e 65 78
e 65 81
e 65 87
e 65 94
e 65 99
e 66 70
e 66 75
e 66 82
e 66 85
e 66 88
e 67 80
e 67 88
e 68 73
e 68 81
e 69 76
e 69 99
e 69 100
e 70 74
e 70 80
e 70 82
e 70 86
e 70 93
e 70 99
e 71 79
e 71 81
e 71 94
e 72 73
e 72 89
e 72 95
e 72 97
e 73 84
e 73 86
e 73 87
e 73 91
e 73 98
e 74 94
e 74 98
e 75 80
e 75 98
e 76 96
e 77 79
e 77 95
e 77 97
e 77 98
e 78 85
e 78 94
e 78 96
e 79 85
e 79 86
e 79 100
e 80 84
e 80 89
e 80 96
e 81 90
e 82 94
e 83 86
e 83 89
e 84 85
e 84 86
e 84 92
e 84 100
e 85 86
e 85 87
e 85 92
e 86 91
e 88 91
e 89 90
e 89 98
e 90 91
e 90 93
e 90 96
e 91 97
e 93 100
e 94 98
e 97 99
